<number of tasks>
50

<cycle time>
1000

<order strength>
0.596


<task times>
1 578
2 309
3 452
4 452
5 492
6 352
7 557
8 278
9 595
10 549
11 425
12 665
13 313
14 511
15 447
16 280
17 466
18 254
19 494
20 584
21 448
22 454
23 732
24 515
25 536
26 458
27 579
28 542
29 557
30 423
31 534
32 376
33 446
34 478
35 269
36 526
37 534
38 676
39 492
40 510
41 461
42 611
43 422
44 503
45 534
46 600
47 578
48 747
49 574
50 437

<precedence relations>
1,7
1,8
1,12
2,7
3,5
3,6
4,5
4,6
4,9
5,10
5,11
5,12
5,13
6,10
6,11
7,10
7,13
7,14
7,15
8,11
8,32
9,10
10,16
11,24
11,27
11,33
12,18
13,17
13,19
14,16
14,17
14,19
14,22
15,17
16,21
16,27
16,29
17,30
18,22
18,28
18,34
19,20
20,25
20,27
20,28
20,34
21,23
21,24
21,26
21,28
22,24
22,25
23,31
23,32
24,48
25,29
25,30
26,30
26,45
27,43
28,39
28,44
29,33
29,38
30,35
30,36
30,38
30,42
31,37
31,38
32,34
32,35
32,40
33,40
33,41
34,39
34,41
37,40
37,48
41,42
41,43
41,44
42,46
43,45
43,46
43,49
44,47
44,48
44,49
44,50

<end>
